Maximize
  2.6985634810097585e-04 Z_360_0_0 + 8.2384083224850216e-04 Z_360_0_1
   + 0.00626923596721732 Z_360_0_2 + 0.2843663720500104 Z_360_0_3
   + 0.608270694802423 Z_360_0_4 + 0.00124991381585745 Z_153_0_0
   + 7.541096085601582e-04 Z_153_0_1 + 0.0241143267971432 Z_153_0_2
   + 0.2173310838183 Z_153_0_3 + 0.6565505659601392 Z_153_0_4
   + 0.00937940487114055 Z_473_0_0 + 0.00791118826076121 Z_473_0_1
   + 0.0156847252453936 Z_473_0_2 + 0.00620256179261758 Z_473_0_3
   + 0.8608221198300871 Z_473_0_4 + 0.00606418842541655 Z_115_0_0
   + 0.0394414277184536 Z_115_0_1 + 0.00332106661042624 Z_115_0_2
   + 0.4815309858949916 Z_115_0_3 + 0.3696423313507121 Z_115_0_4
   + 0.00845536290683456 Z_445_0_0 + 0.00463594225229489 Z_445_0_1
   + 0.00171511954400386 Z_445_0_2 + 0.00699152388394811 Z_445_0_3
   + 0.8782020514129187 Z_445_0_4 + 5.6160935588083372e-04 Z_412_1_0
   + 0.00115597084348719 Z_412_1_1 + 0.6435942284703774 Z_412_1_2
   + 0.00458043796349235 Z_412_1_3 + 0.2501077533667621 Z_412_1_4 + [
   0.1417088529992655 Z_360_0_0 * Z_473_0_0
   + 0.0566830547669084 Z_360_0_0 * Z_115_0_0
   + 0.2102474645997129 Z_360_0_0 * Z_445_0_0
   + 0.0148760330578512 Z_360_0_0 * Z_412_1_0
   + 0.1417088529992655 Z_360_0_1 * Z_473_0_1
   + 0.0566830547669084 Z_360_0_1 * Z_115_0_1
   + 0.2102474645997129 Z_360_0_1 * Z_445_0_1
   + 0.0148760330578512 Z_360_0_1 * Z_412_1_1
   + 0.1417088529992655 Z_360_0_2 * Z_473_0_2
   + 0.0566830547669084 Z_360_0_2 * Z_115_0_2
   + 0.2102474645997129 Z_360_0_2 * Z_445_0_2
   + 0.0148760330578512 Z_360_0_2 * Z_412_1_2
   + 0.1417088529992655 Z_360_0_3 * Z_473_0_3
   + 0.0566830547669084 Z_360_0_3 * Z_115_0_3
   + 0.2102474645997129 Z_360_0_3 * Z_445_0_3
   + 0.0148760330578512 Z_360_0_3 * Z_412_1_3
   + 0.1417088529992655 Z_360_0_4 * Z_473_0_4
   + 0.0566830547669084 Z_360_0_4 * Z_115_0_4
   + 0.2102474645997129 Z_360_0_4 * Z_445_0_4
   + 0.0148760330578512 Z_360_0_4 * Z_412_1_4
   + 0.2156948339706591 Z_473_0_0 * Z_115_0_0
   + 0.2039579601720378 Z_473_0_0 * Z_445_0_0
   + 0.0148760330578512 Z_473_0_0 * Z_412_1_0
   + 0.2156948339706591 Z_473_0_1 * Z_115_0_1
   + 0.2039579601720378 Z_473_0_1 * Z_445_0_1
   + 0.0148760330578512 Z_473_0_1 * Z_412_1_1
   + 0.2156948339706591 Z_473_0_2 * Z_115_0_2
   + 0.2039579601720378 Z_473_0_2 * Z_445_0_2
   + 0.0148760330578512 Z_473_0_2 * Z_412_1_2
   + 0.2156948339706591 Z_473_0_3 * Z_115_0_3
   + 0.2039579601720378 Z_473_0_3 * Z_445_0_3
   + 0.0148760330578512 Z_473_0_3 * Z_412_1_3
   + 0.2156948339706591 Z_473_0_4 * Z_115_0_4
   + 0.2039579601720378 Z_473_0_4 * Z_445_0_4
   + 0.0148760330578512 Z_473_0_4 * Z_412_1_4
   + 0.0512710451384482 Z_115_0_0 * Z_445_0_0
   + 1.0405827263267426e-04 Z_115_0_0 * Z_412_1_0
   + 0.0512710451384482 Z_115_0_1 * Z_445_0_1
   + 1.0405827263267426e-04 Z_115_0_1 * Z_412_1_1
   + 0.0512710451384482 Z_115_0_2 * Z_445_0_2
   + 1.0405827263267426e-04 Z_115_0_2 * Z_412_1_2
   + 0.0512710451384482 Z_115_0_3 * Z_445_0_3
   + 1.0405827263267426e-04 Z_115_0_3 * Z_412_1_3
   + 0.0512710451384482 Z_115_0_4 * Z_445_0_4
   + 1.0405827263267426e-04 Z_115_0_4 * Z_412_1_4
   + 0.0148760330578512 Z_445_0_0 * Z_412_1_0
   + 0.0148760330578512 Z_445_0_1 * Z_412_1_1
   + 0.0148760330578512 Z_445_0_2 * Z_412_1_2
   + 0.0148760330578512 Z_445_0_3 * Z_412_1_3
   + 0.0148760330578512 Z_445_0_4 * Z_412_1_4 ] / 2 
Subject To
 constraint1_3600: Z_360_0_0 + Z_360_0_1 + Z_360_0_2 + Z_360_0_3
   + Z_360_0_4 <= 1
 constraint1_1530: Z_153_0_0 + Z_153_0_1 + Z_153_0_2 + Z_153_0_3
   + Z_153_0_4 <= 1
 constraint1_4730: Z_473_0_0 + Z_473_0_1 + Z_473_0_2 + Z_473_0_3
   + Z_473_0_4 <= 1
 constraint1_1150: Z_115_0_0 + Z_115_0_1 + Z_115_0_2 + Z_115_0_3
   + Z_115_0_4 <= 1
 constraint1_4450: Z_445_0_0 + Z_445_0_1 + Z_445_0_2 + Z_445_0_3
   + Z_445_0_4 <= 1
 constraint1_4121: Z_412_1_0 + Z_412_1_1 + Z_412_1_2 + Z_412_1_3
   + Z_412_1_4 <= 1
 constraint2_3600: Z_360_0_0 <= 1
 constraint2_3601: Z_360_0_1 <= 1
 constraint2_3602: Z_360_0_2 <= 1
 constraint2_3603: Z_360_0_3 <= 1
 constraint2_3610: <= 1
 constraint2_3611: <= 1
 constraint2_3612: <= 1
 constraint2_3613: <= 1
 constraint2_1530: Z_153_0_0 <= 1
 constraint2_1531: Z_153_0_1 <= 1
 constraint2_1532: Z_153_0_2 <= 1
 constraint2_1533: Z_153_0_3 <= 1
 constraint2_4730: Z_473_0_0 <= 1
 constraint2_4731: Z_473_0_1 <= 1
 constraint2_4732: Z_473_0_2 <= 1
 constraint2_4733: Z_473_0_3 <= 1
 constraint2_1150: Z_115_0_0 <= 1
 constraint2_1151: Z_115_0_1 <= 1
 constraint2_1152: Z_115_0_2 <= 1
 constraint2_1153: Z_115_0_3 <= 1
 constraint2_4450: Z_445_0_0 <= 1
 constraint2_4451: Z_445_0_1 <= 1
 constraint2_4452: Z_445_0_2 <= 1
 constraint2_4453: Z_445_0_3 <= 1
 constraint2_390: <= 1
 constraint2_391: <= 1
 constraint2_392: <= 1
 constraint2_393: <= 1
 constraint2_5880: <= 1
 constraint2_5881: <= 1
 constraint2_5882: <= 1
 constraint2_5883: <= 1
 constraint2_4120: Z_412_1_0 <= 1
 constraint2_4121: Z_412_1_1 <= 1
 constraint2_4122: Z_412_1_2 <= 1
 constraint2_4123: Z_412_1_3 <= 1
Bounds
Binaries
 Z_360_0_0 Z_360_0_1 Z_360_0_2 Z_360_0_3 Z_360_0_4 Z_153_0_0 Z_153_0_1
 Z_153_0_2 Z_153_0_3 Z_153_0_4 Z_473_0_0 Z_473_0_1 Z_473_0_2 Z_473_0_3
 Z_473_0_4 Z_115_0_0 Z_115_0_1 Z_115_0_2 Z_115_0_3 Z_115_0_4 Z_445_0_0
 Z_445_0_1 Z_445_0_2 Z_445_0_3 Z_445_0_4 Z_412_1_0 Z_412_1_1 Z_412_1_2
 Z_412_1_3 Z_412_1_4
End
